(declare-const havoc Int)
(declare-const |y':42:48:51:54| Int)
(declare-const |havoc:4| Int)
(declare-const |K:45:46:49:52| Int)
(declare-const |x':41:47:50:53| Int)
(declare-const |havoc:2| Int)
(assert (and (<= (- havoc) 0) (<= (+ (- |havoc:2|) havoc) 0)
               (< (+ (- |havoc:4|) |havoc:2|) 0)
               (= (+ |x':41:47:50:53| (- |K:45:46:49:52|) (- havoc)) 0)
               (<= (+ |y':42:48:51:54| (- |K:45:46:49:52|) (- |havoc:2|)) 0)
               (<= (+ (- |y':42:48:51:54|) |havoc:2|) 0)
               (or (and (= |K:45:46:49:52| 0)
                          (= (+ (- |y':42:48:51:54|) |havoc:2|) 0)
                          (= (+ (- |x':41:47:50:53|) havoc) 0))
                     (and (<= (+ (- |K:45:46:49:52|) 1) 0) (<= (- havoc) 0)
                            (<= (+ (- |havoc:4|) havoc 1) 0)
                            (<= (- |havoc:2|) 0)
                            (<= (+ (- |y':42:48:51:54|) 1) 0)
                            (<= (+ (- |x':41:47:50:53|) 1) 0)
                            (<= (+ |x':41:47:50:53| (- |havoc:4|)) 0)))
               (<= (- |K:45:46:49:52|) 0) (<= (- |x':41:47:50:53|) 0)
               (< (- |havoc:4|) 0) (<= (- |y':42:48:51:54|) 0)
               (<= (+ (- |x':41:47:50:53|) |havoc:4|) 0)
               (not (= (+ |y':42:48:51:54| (- |havoc:4|)) 0))))
(check-sat)
